SCIP version 5.0.0 [precision: 8 byte] [memory: block] [mode: optimized] [LP solver: NONE] [GitHash: 3bbd232]
Copyright (C) 2002-2017 Konrad-Zuse-Zentrum fuer Informationstechnik Berlin (ZIB)

External codes: 
  Readline EditLine w  GNU library for command line editing (gnu.org/s/readline)
  CppAD 20160000.1     Algorithmic Differentiation of C++ algorithms developed by B. Bell (www.coin-or.org/CppAD)
  ZLIB 1.2.5           General purpose compression library by J. Gailly and M. Adler (zlib.net)
  GMP 6.1.2            GNU Multiple Precision Arithmetic Library developed by T. Granlund (gmplib.org)

user parameter file <scip.set> not found - using default parameters

read problem <../../Split_data/output/parkin/6/4_sample_parkin.logreg>
============

File name	:	../../Split_data/output/parkin/6/4_sample_parkin.logreg
Problem name 	:	4_sample_parkin
Number of data	:	156
Number of var	:	22
The given data has linear independence

[dim=1] time: 0.003024
[dim=2] time: 0.006158
[dim=3] time: 0.008856
[dim=4] time: 0.011363
[dim=5] time: 0.013724
[dim=6] time: 0.016175
[dim=7] time: 0.018518
[dim=8] time: 0.020468
[dim=9] Time of forward = 0.022507sec.
AIC: 101.373
k: 8

[dim=22] time: 0.051813
[dim=21] time: 0.056447
[dim=20] time: 0.107609
[dim=19] time: 0.175629
[dim=18] time: 0.238042
[dim=17] time: 0.244562
[dim=16] time: 0.320331
[dim=15] time: 0.323982
[dim=14] time: 0.329282
[dim=13] time: 0.334512
[dim=12] time: 0.338158
[dim=11] time: 0.340794
[dim=10] time: 0.342604
[dim=9] time: 0.344196
[dim=8] Time of backward = 0.345594sec.
AIC: 90.8875
k: 9
